(set-info :source |printed by MathSAT|)
(declare-fun |!{$(in_main#0)<volArray.1>}| () (Array Int Int))
(declare-fun |!{$(in_main#0)<volArray.1>}.next| () (Array Int Int))
(declare-fun |!{$(in_main#0)<CELLCOUNT_2>}| () Int)
(declare-fun |!{$(in_main#0)<CELLCOUNT_2>}.next| () Int)
(declare-fun |!{$(in_main#0)<i>}| () Int)
(declare-fun |!{$(in_main#0)<i>}.next| () Int)
(declare-fun |!{$(in_main#0)<k>}| () Int)
(declare-fun |!{$(in_main#0)<k>}.next| () Int)
(declare-fun |!{$(in_main#0)<$(in___VERIFIER_nondet_int#0)<h#<__VERIFIER_nondet_int.return>>>}| () Int)
(declare-fun !pc () Int)
(declare-fun !pc.next () Int)
(declare-fun |%{$(in_main#0)<k>}#1| () Int)
(declare-fun |%{$(in_main#0)<volArray.1>}#1| () (Array Int Int))
(declare-fun |%{$(in_main#0)<volArray.1>}#2| () (Array Int Int))
(define-fun .def_28 () Int (! !pc :next !pc.next))
(define-fun .def_31 () Bool (! (= .def_28 2) :init true))
(define-fun .def_164 () Bool (= .def_28 39))
(define-fun .def_138 () Bool (= !pc.next 64))
(define-fun .def_167 () Bool (and .def_138 .def_164))
(define-fun .def_10 () Int (! |!{$(in_main#0)<CELLCOUNT_2>}| :next |!{$(in_main#0)<CELLCOUNT_2>}.next|))
(define-fun .def_78 () Bool (= .def_10 |!{$(in_main#0)<CELLCOUNT_2>}.next|))
(define-fun .def_8 () (Array Int Int) (! |!{$(in_main#0)<volArray.1>}| :next |!{$(in_main#0)<volArray.1>}.next|))
(define-fun .def_76 () Bool (= .def_8 |!{$(in_main#0)<volArray.1>}.next|))
(define-fun .def_85 () Bool (and .def_76 .def_78))
(define-fun .def_51 () Bool (= |!{$(in_main#0)<i>}.next| 1))
(define-fun .def_161 () Bool (and .def_51 .def_85))
(define-fun .def_14 () Int (! |!{$(in_main#0)<k>}| :next |!{$(in_main#0)<k>}.next|))
(define-fun .def_82 () Bool (= .def_14 |!{$(in_main#0)<k>}.next|))
(define-fun .def_162 () Bool (and .def_82 .def_161))
(define-fun .def_12 () Int (! |!{$(in_main#0)<i>}| :next |!{$(in_main#0)<i>}.next|))
(define-fun .def_114 () Bool (<= .def_12 .def_10))
(define-fun .def_124 () Bool (not .def_114))
(define-fun .def_163 () Bool (and .def_124 .def_162))
(define-fun .def_168 () Bool (and .def_163 .def_167))
(define-fun .def_57 () Bool (= !pc.next 39))
(define-fun .def_165 () Bool (and .def_57 .def_164))
(define-fun .def_115 () Int (* 2 .def_12))
(define-fun .def_117 () Int (+ .def_115 (- 1)))
(define-fun .def_153 () Int (select |%{$(in_main#0)<volArray.1>}#2| .def_117))
(define-fun .def_154 () (Array Int Int) (store |%{$(in_main#0)<volArray.1>}#2| .def_117 .def_153))
(define-fun .def_155 () Bool (= |!{$(in_main#0)<volArray.1>}.next| .def_154))
(define-fun .def_156 () Bool (and .def_78 .def_155))
(define-fun .def_127 () Int (* (- 1) |!{$(in_main#0)<i>}.next|))
(define-fun .def_128 () Int (+ .def_12 .def_127))
(define-fun .def_129 () Bool (= .def_128 (- 1)))
(define-fun .def_157 () Bool (and .def_129 .def_156))
(define-fun .def_158 () Bool (and .def_82 .def_157))
(define-fun .def_121 () Int (+ .def_115 (- 2)))
(define-fun .def_146 () (Array Int Int) (store .def_8 .def_121 3))
(define-fun .def_150 () Bool (= .def_146 |%{$(in_main#0)<volArray.1>}#2|))
(define-fun .def_159 () Bool (and .def_150 .def_158))
(define-fun .def_160 () Bool (and .def_114 .def_159))
(define-fun .def_166 () Bool (and .def_160 .def_165))
(define-fun .def_169 () Bool (or .def_166 .def_168))
(define-fun .def_137 () Bool (= .def_28 64))
(define-fun .def_103 () Bool (= !pc.next 88))
(define-fun .def_141 () Bool (and .def_103 .def_137))
(define-fun .def_133 () Bool (= |!{$(in_main#0)<k>}.next| 0))
(define-fun .def_80 () Bool (= .def_12 |!{$(in_main#0)<i>}.next|))
(define-fun .def_86 () Bool (and .def_80 .def_85))
(define-fun .def_134 () Bool (and .def_86 .def_133))
(define-fun .def_135 () Bool (and .def_124 .def_134))
(define-fun .def_142 () Bool (and .def_135 .def_141))
(define-fun .def_139 () Bool (and .def_137 .def_138))
(define-fun .def_119 () (Array Int Int) (store .def_8 .def_117 0))
(define-fun .def_125 () Bool (= |!{$(in_main#0)<volArray.1>}.next| .def_119))
(define-fun .def_126 () Bool (and .def_78 .def_125))
(define-fun .def_130 () Bool (and .def_126 .def_129))
(define-fun .def_131 () Bool (and .def_82 .def_130))
(define-fun .def_132 () Bool (and .def_114 .def_131))
(define-fun .def_140 () Bool (and .def_132 .def_139))
(define-fun .def_143 () Bool (or .def_140 .def_142))
(define-fun .def_107 () Bool (= !pc.next 0))
(define-fun .def_98 () Bool (= .def_28 88))
(define-fun .def_108 () Bool (and .def_98 .def_107))
(define-fun .def_62 () Int (* (- 1) .def_14))
(define-fun .def_60 () Int (* 2 .def_10))
(define-fun .def_63 () Int (+ .def_60 .def_62))
(define-fun .def_64 () Bool (<= .def_63 0))
(define-fun .def_93 () Bool (and .def_64 .def_76))
(define-fun .def_94 () Bool (and .def_78 .def_93))
(define-fun .def_95 () Bool (and .def_80 .def_94))
(define-fun .def_96 () Bool (and .def_82 .def_95))
(define-fun .def_109 () Bool (and .def_96 .def_108))
(define-fun .def_104 () Bool (and .def_98 .def_103))
(define-fun .def_87 () Int (* (- 1) |!{$(in_main#0)<k>}.next|))
(define-fun .def_88 () Int (+ .def_14 .def_87))
(define-fun .def_89 () Bool (= .def_88 (- 1)))
(define-fun .def_90 () Bool (and .def_86 .def_89))
(define-fun .def_66 () Int (select .def_8 .def_14))
(define-fun .def_68 () Bool (= .def_66 0))
(define-fun .def_67 () Bool (<= 2 .def_66))
(define-fun .def_69 () Bool (or .def_67 .def_68))
(define-fun .def_70 () Int (ite .def_69 1 0))
(define-fun .def_71 () Bool (= .def_70 0))
(define-fun .def_72 () Bool (not .def_71))
(define-fun .def_91 () Bool (and .def_72 .def_90))
(define-fun .def_65 () Bool (not .def_64))
(define-fun .def_92 () Bool (and .def_65 .def_91))
(define-fun .def_105 () Bool (and .def_92 .def_104))
(define-fun .def_100 () Bool (= !pc.next 108))
(define-fun .def_101 () Bool (and .def_98 .def_100))
(define-fun .def_77 () Bool (and .def_71 .def_76))
(define-fun .def_79 () Bool (and .def_77 .def_78))
(define-fun .def_81 () Bool (and .def_79 .def_80))
(define-fun .def_83 () Bool (and .def_81 .def_82))
(define-fun .def_84 () Bool (and .def_65 .def_83))
(define-fun .def_102 () Bool (and .def_84 .def_101))
(define-fun .def_106 () Bool (or .def_102 .def_105))
(define-fun .def_110 () Bool (or .def_106 .def_109))
(define-fun .def_58 () Bool (and .def_31 .def_57))
(define-fun .def_53 () Bool (= |!{$(in_main#0)<k>}.next| |%{$(in_main#0)<k>}#1|))
(define-fun .def_49 () Bool (= |!{$(in_main#0)<CELLCOUNT_2>}.next| |!{$(in_main#0)<$(in___VERIFIER_nondet_int#0)<h#<__VERIFIER_nondet_int.return>>>}|))
(define-fun .def_48 () Bool (= |!{$(in_main#0)<volArray.1>}.next| |%{$(in_main#0)<volArray.1>}#1|))
(define-fun .def_50 () Bool (and .def_48 .def_49))
(define-fun .def_52 () Bool (and .def_50 .def_51))
(define-fun .def_54 () Bool (and .def_52 .def_53))
(define-fun .def_43 () Bool (<= |!{$(in_main#0)<$(in___VERIFIER_nondet_int#0)<h#<__VERIFIER_nondet_int.return>>>}| 0))
(define-fun .def_44 () Bool (not .def_43))
(define-fun .def_45 () Int (ite .def_44 1 0))
(define-fun .def_46 () Bool (= .def_45 0))
(define-fun .def_47 () Bool (not .def_46))
(define-fun .def_55 () Bool (and .def_47 .def_54))
(define-fun .def_59 () Bool (and .def_55 .def_58))
(define-fun .def_111 () Bool (or .def_59 .def_110))
(define-fun .def_144 () Bool (or .def_111 .def_143))
(define-fun .def_170 () Bool (! (or .def_144 .def_169) :trans true))
(define-fun .def_112 () Bool (= .def_28 108))
(define-fun .def_171 () Bool (! (not .def_112) :invar-property 0 :invar-property-name ||))
(assert true)
